(set-option :print-success false)
(set-logic QF_UF)
(declare-sort x104 0)
(declare-sort x190 0)
(declare-fun x122 (x190) x190)
(declare-fun x91 () x190)
(declare-fun x225 () x190)
(declare-fun x59 (x190 x190) x190)
(declare-fun x146 () x190)
(declare-fun x226 (x190 x190) x190)
(declare-fun x26 () x190)
(declare-fun x186 () x190)
(declare-fun x218 () x190)
(declare-fun x8 () x190)
(declare-fun x39 () x190)
(declare-fun x134 () x190)
(assert (let ((x140 (x59 x225 x26)) (x57 (x59 x146 x26)) (x212 (x59 x134 x26)) (x47 (x59 x218 x26)) (x105 (x59 x186 x26)) (x128 (x59 x39 x26))) (and (and (and (not (= (x59 x128 x39) x128)) (and (and (and (not (= x212 (x59 x212 x134))) (not (= (x59 x57 x146) x57))) (not (= x140 (x59 x140 x225)))) (not (= (x59 x47 x218) x47)))) (not (= x105 (x59 x105 x186)))) (or (or (= x26 x39) (or (= x26 x218) (or (= x26 x225) (or (= x26 x146) (= x134 x26))))) (= x26 x186)))))
(assert (let ((x207 (x59 x186 x218)) (x23 (x59 x134 x225)) (x261 (x59 x225 x39)) (x76 (x59 x225 x218)) (x106 (x59 x134 x218)) (x188 (x59 x225 x186)) (x112 (x59 x134 x186)) (x70 (x59 x225 x134)) (x129 (x59 x186 x146)) (x128 (x59 x146 x39)) (x212 (x59 x146 x134)) (x233 (x59 x218 x218)) (x67 (x59 x186 x186)) (x60 (x59 x218 x134)) (x77 (x59 x39 x134)) (x47 (x59 x146 x218)) (x98 (x59 x134 x146)) (x85 (x59 x39 x39)) (x145 (x59 x134 x39)) (x174 (x59 x186 x225)) (x140 (x59 x146 x225)) (x169 (x59 x218 x39)) (x62 (x59 x39 x146)) (x194 (x59 x186 x39)) (x57 (x59 x146 x146)) (x171 (x59 x39 x186)) (x55 (x59 x218 x146)) (x72 (x59 x39 x218)) (x224 (x59 x39 x225)) (x100 (x59 x225 x225)) (x29 (x59 x218 x186)) (x239 (x59 x134 x134)) (x105 (x59 x146 x186)) (x159 (x59 x225 x146)) (x265 (x59 x186 x134)) (x16 (x59 x218 x225))) (and (and (and (or (= x194 x186) (or (= x194 x39) (or (= x218 x194) (or (= x194 x225) (or (= x134 x194) (= x146 x194)))))) (and (and (and (or (= x265 x186) (or (= x39 x265) (or (or (= x225 x265) (or (= x134 x265) (= x265 x146))) (= x218 x265)))) (or (or (or (or (or (= x134 x129) (= x129 x146)) (= x225 x129)) (= x218 x129)) (= x39 x129)) (= x129 x186))) (or (= x174 x186) (or (= x39 x174) (or (or (or (= x174 x134) (= x146 x174)) (= x225 x174)) (= x218 x174))))) (or (or (or (= x218 x207) (or (= x207 x225) (or (= x146 x207) (= x207 x134)))) (= x39 x207)) (= x186 x207)))) (or (or (or (= x218 x67) (or (or (= x67 x134) (= x146 x67)) (= x67 x225))) (= x67 x39)) (= x67 x186))) (and (and (and (or (or (or (or (or (= x85 x146) (= x85 x134)) (= x225 x85)) (= x85 x218)) (= x85 x39)) (= x186 x85)) (and (or (or (or (or (or (= x146 x72) (= x72 x134)) (= x225 x72)) (= x218 x72)) (= x72 x39)) (= x186 x72)) (and (and (or (or (or (or (or (= x77 x146) (= x134 x77)) (= x77 x225)) (= x77 x218)) (= x39 x77)) (= x186 x77)) (or (or (or (= x62 x218) (or (= x225 x62) (or (= x146 x62) (= x134 x62)))) (= x62 x39)) (= x186 x62))) (or (= x186 x224) (or (or (= x218 x224) (or (= x225 x224) (or (= x224 x146) (= x224 x134)))) (= x224 x39)))))) (or (= x186 x171) (or (or (or (= x171 x225) (or (= x171 x134) (= x171 x146))) (= x171 x218)) (= x171 x39)))) (and (and (and (and (and (and (and (or (or (or (= x218 x70) (or (or (= x70 x134) (= x70 x146)) (= x225 x70))) (= x70 x39)) (= x186 x70)) (or (= x186 x159) (or (= x39 x159) (or (or (or (= x134 x159) (= x146 x159)) (= x159 x225)) (= x218 x159))))) (or (or (or (or (= x225 x100) (or (= x100 x146) (= x100 x134))) (= x100 x218)) (= x100 x39)) (= x186 x100))) (or (or (or (or (= x225 x76) (or (= x76 x134) (= x146 x76))) (= x76 x218)) (= x39 x76)) (= x76 x186))) (or (= x261 x186) (or (= x261 x39) (or (or (= x225 x261) (or (= x261 x134) (= x261 x146))) (= x218 x261))))) (or (= x186 x188) (or (= x39 x188) (or (= x218 x188) (or (or (= x134 x188) (= x146 x188)) (= x188 x225)))))) (and (and (and (and (or (= x106 x186) (or (or (= x106 x218) (or (or (= x146 x106) (= x134 x106)) (= x225 x106))) (= x39 x106))) (and (and (or (= x239 x186) (or (= x39 x239) (or (or (= x225 x239) (or (= x146 x239) (= x134 x239))) (= x239 x218)))) (or (or (= x98 x39) (or (or (or (= x134 x98) (= x146 x98)) (= x98 x225)) (= x98 x218))) (= x186 x98))) (or (= x23 x186) (or (or (= x218 x23) (or (or (= x134 x23) (= x23 x146)) (= x23 x225))) (= x23 x39))))) (or (or (= x39 x145) (or (or (= x225 x145) (or (= x146 x145) (= x134 x145))) (= x218 x145))) (= x186 x145))) (or (or (or (= x112 x218) (or (= x112 x225) (or (= x146 x112) (= x134 x112)))) (= x112 x39)) (= x112 x186))) (and (or (= x186 x105) (or (= x39 x105) (or (or (= x225 x105) (or (= x134 x105) (= x146 x105))) (= x218 x105)))) (and (and (or (or (or (or (= x47 x225) (or (= x47 x146) (= x134 x47))) (= x47 x218)) (= x39 x47)) (= x186 x47)) (and (and (or (= x212 x186) (or (or (or (= x212 x225) (or (= x134 x212) (= x212 x146))) (= x212 x218)) (= x212 x39))) (or (= x57 x186) (or (= x57 x39) (or (= x57 x218) (or (= x225 x57) (or (= x57 x134) (= x57 x146))))))) (or (or (= x39 x140) (or (= x218 x140) (or (or (= x140 x146) (= x140 x134)) (= x140 x225)))) (= x186 x140)))) (or (= x186 x128) (or (= x39 x128) (or (= x218 x128) (or (= x225 x128) (or (= x128 x146) (= x128 x134)))))))))) (and (and (and (or (or (or (= x233 x218) (or (or (= x134 x233) (= x146 x233)) (= x233 x225))) (= x39 x233)) (= x233 x186)) (and (or (or (= x39 x16) (or (or (or (= x16 x134) (= x146 x16)) (= x225 x16)) (= x218 x16))) (= x16 x186)) (and (or (= x55 x186) (or (= x39 x55) (or (= x55 x218) (or (= x225 x55) (or (= x134 x55) (= x55 x146)))))) (or (or (or (= x60 x218) (or (or (= x60 x134) (= x60 x146)) (= x225 x60))) (= x60 x39)) (= x186 x60))))) (or (= x169 x186) (or (or (or (= x225 x169) (or (= x146 x169) (= x134 x169))) (= x169 x218)) (= x39 x169)))) (or (or (= x39 x29) (or (or (or (= x29 x146) (= x29 x134)) (= x225 x29)) (= x29 x218))) (= x186 x29))))))))
(assert (let ((x128 (x59 x134 x134))) (let ((x57 (x59 x128 x134))) (let ((x212 (x59 x57 x134))) (let ((x140 (x59 x212 x57))) (let ((x47 (x59 x134 x140))) (not (and (and (not (= x134 x128)) (and (and (not (= x134 x47)) (and (and (and (not (= x134 x128)) (and (and (and (not (= x128 x57)) (and (not (= x212 x128)) (and (and (and (not (= x140 x47)) (and (not (= x140 x57)) (and (not (= x212 x140)) (and (not (= x134 x47)) (and (and (not (= x47 x140)) (and (and (and (not (= x134 x57)) (and (not (= x128 x57)) (and (not (= x140 x57)) (and (and (and (and (not (= x212 x128)) (and (not (= x140 x212)) (and (not (= x57 x212)) (not (= x47 x212))))) (not (= x134 x212))) (not (= x57 x212))) (not (= x57 x47)))))) (not (= x212 x47))) (not (= x47 x57)))) (not (= x47 x128))))))) (not (= x140 x128))) (not (= x134 x140))))) (not (= x47 x128))) (not (= x128 x140)))) (not (= x134 x212))) (not (= x134 x57)))) (not (= x140 x134)))) (and (= x128 x128) (and (= x140 (x59 x134 x128)) (and (= x47 x47) (and (and (= (x59 x134 x57) x57) (and (and (= x57 x57) (and (and (= x212 (x59 x128 x140)) (and (and (and (and (and (= x128 (x59 x140 x128)) (and (and (and (and (= (x59 x140 x212) x134) (and (and (= (x59 x47 x128) x134) (and (= (x59 x47 x140) x140) (and (= (x59 x47 x47) x212) (and (= (x59 x47 x57) x128) (and (and (= x212 x212) (and (= x57 (x59 x57 x128)) (and (and (= x128 (x59 x57 x47)) (and (and (= (x59 x57 x212) x140) (and (and (= (x59 x212 x128) x212) (and (= (x59 x212 x140) x128) (and (= x57 (x59 x212 x47)) (and (= x47 (x59 x212 x212)) (= x140 x140))))) (= x134 (x59 x212 x134)))) (= x47 (x59 x57 x57)))) (= (x59 x57 x140) x134)))) (= (x59 x47 x212) x57)))))) (= x47 (x59 x47 x134)))) (= (x59 x140 x57) x212)) (= (x59 x140 x47) x47)) (= (x59 x140 x140) x57))) (= x140 (x59 x140 x134))) (= x128 (x59 x128 x212))) (= (x59 x128 x57) x134)) (= x140 (x59 x128 x47)))) (= x47 (x59 x128 x128)))) (= (x59 x134 x212) x212))) (= x134 (x59 x134 x47))))))))))))))
(assert (and (and (and (not (= x39 (x59 x91 (x59 x91 x39)))) (and (not (= x218 (x59 x91 (x59 x91 x218)))) (and (and (not (= (x59 x91 (x59 x91 x134)) x134)) (not (= (x59 x91 (x59 x91 x146)) x146))) (not (= x225 (x59 x91 (x59 x91 x225))))))) (not (= x186 (x59 x91 (x59 x91 x186))))) (or (= x91 x186) (or (= x91 x39) (or (= x91 x218) (or (or (= x134 x91) (= x146 x91)) (= x225 x91)))))))
(assert (let ((x128 (x59 x186 x186))) (let ((x57 (x59 x128 x186))) (let ((x212 (x59 x57 x186))) (let ((x140 (x59 x212 x57))) (let ((x47 (x59 x186 x140))) (not (and (and (not (= x186 x128)) (and (and (not (= x47 x186)) (and (not (= x57 x186)) (and (not (= x212 x186)) (and (and (not (= x128 x140)) (and (and (and (not (= x212 x128)) (and (and (and (and (not (= x140 x57)) (and (and (not (= x47 x186)) (and (not (= x128 x47)) (and (not (= x47 x140)) (and (and (and (and (not (= x128 x57)) (and (not (= x57 x140)) (and (not (= x57 x47)) (and (and (not (= x186 x212)) (and (not (= x212 x128)) (and (not (= x212 x140)) (and (not (= x212 x57)) (not (= x47 x212)))))) (not (= x57 x212)))))) (not (= x186 x57))) (not (= x47 x212))) (not (= x57 x47)))))) (not (= x140 x212)))) (not (= x47 x140))) (not (= x140 x128))) (not (= x186 x140)))) (not (= x57 x128))) (not (= x128 x47)))) (not (= x186 x128)))))) (not (= x140 x186)))) (and (= x128 x128) (and (= (x59 x186 x128) x140) (and (= x47 x47) (and (and (and (= x212 (x59 x186 x212)) (and (and (and (= x212 (x59 x128 x140)) (and (= x140 (x59 x128 x47)) (and (and (and (= (x59 x140 x186) x140) (and (and (and (= (x59 x140 x47) x47) (and (and (and (= (x59 x47 x186) x47) (and (= x186 (x59 x47 x128)) (and (and (and (and (and (= x212 x212) (and (and (= (x59 x57 x140) x186) (and (= (x59 x57 x47) x128) (and (= x47 (x59 x57 x57)) (and (= (x59 x57 x212) x140) (and (= (x59 x212 x186) x186) (and (and (and (and (= x140 x140) (= x47 (x59 x212 x212))) (= x57 (x59 x212 x47))) (= (x59 x212 x140) x128)) (= (x59 x212 x128) x212))))))) (= x57 (x59 x57 x128)))) (= (x59 x47 x212) x57)) (= (x59 x47 x57) x128)) (= x212 (x59 x47 x47))) (= x140 (x59 x47 x140))))) (= (x59 x140 x212) x186)) (= (x59 x140 x57) x212))) (= x57 (x59 x140 x140))) (= x128 (x59 x140 x128)))) (= (x59 x128 x212) x128)) (= x186 (x59 x128 x57))))) (= x47 (x59 x128 x128))) (= x57 x57))) (= (x59 x186 x57) x57)) (= (x59 x186 x47) x186)))))))))))))
(assert (let ((x128 (x59 x39 x39))) (let ((x57 (x59 x128 x39))) (let ((x212 (x59 x57 x39))) (let ((x140 (x59 x212 x57))) (let ((x47 (x59 x39 x140))) (not (and (and (not (= x128 x39)) (and (not (= x39 x140)) (and (not (= x39 x47)) (and (and (not (= x212 x39)) (and (and (and (not (= x128 x47)) (and (not (= x57 x128)) (and (and (not (= x140 x39)) (and (and (not (= x47 x140)) (and (not (= x140 x57)) (and (and (and (and (not (= x140 x47)) (and (not (= x57 x47)) (and (and (and (and (not (= x57 x140)) (and (not (= x57 x47)) (and (and (and (and (and (not (= x57 x212)) (not (= x47 x212))) (not (= x212 x140))) (not (= x212 x128))) (not (= x212 x39))) (not (= x57 x212))))) (not (= x57 x128))) (not (= x39 x57))) (not (= x212 x47))))) (not (= x47 x128))) (not (= x39 x47))) (not (= x212 x140))))) (not (= x128 x140)))) (not (= x128 x212))))) (not (= x140 x128))) (not (= x128 x39)))) (not (= x57 x39)))))) (and (= x128 x128) (and (= x140 (x59 x39 x128)) (and (= x47 x47) (and (= x39 (x59 x39 x47)) (and (= x57 (x59 x39 x57)) (and (and (and (= x47 (x59 x128 x128)) (and (and (= x140 (x59 x128 x47)) (and (= (x59 x128 x57) x39) (and (and (and (= (x59 x140 x128) x128) (and (and (= (x59 x140 x47) x47) (and (= x212 (x59 x140 x57)) (and (= (x59 x140 x212) x39) (and (and (and (and (and (and (and (= x212 x212) (and (and (and (and (and (= (x59 x57 x212) x140) (and (= (x59 x212 x39) x39) (and (and (and (and (= x47 (x59 x212 x212)) (= x140 x140)) (= (x59 x212 x47) x57)) (= (x59 x212 x140) x128)) (= x212 (x59 x212 x128))))) (= x47 (x59 x57 x57))) (= (x59 x57 x47) x128)) (= (x59 x57 x140) x39)) (= x57 (x59 x57 x128)))) (= x57 (x59 x47 x212))) (= x128 (x59 x47 x57))) (= (x59 x47 x47) x212)) (= (x59 x47 x140) x140)) (= (x59 x47 x128) x39)) (= x47 (x59 x47 x39)))))) (= (x59 x140 x140) x57))) (= x140 (x59 x140 x39))) (= x128 (x59 x128 x212))))) (= (x59 x128 x140) x212))) (= x57 x57)) (= (x59 x39 x212) x212)))))))))))))))
(assert (let ((x57 (x122 x146)) (x140 (x122 x225)) (x212 (x122 x134)) (x47 (x122 x218)) (x128 (x122 x39)) (x105 (x122 x186))) (and (and (or (= x186 x105) (or (or (= x105 x218) (or (or (= x105 x134) (= x105 x146)) (= x105 x225))) (= x105 x39))) (and (or (or (= x39 x128) (or (or (= x225 x128) (or (= x128 x146) (= x128 x134))) (= x218 x128))) (= x128 x186)) (and (or (or (= x39 x47) (or (= x47 x218) (or (= x47 x225) (or (= x47 x146) (= x134 x47))))) (= x47 x186)) (and (or (or (= x39 x140) (or (or (= x140 x225) (or (= x134 x140) (= x140 x146))) (= x218 x140))) (= x186 x140)) (and (or (= x57 x186) (or (= x39 x57) (or (or (= x57 x225) (or (= x134 x57) (= x57 x146))) (= x57 x218)))) (or (= x186 x212) (or (or (= x212 x218) (or (or (= x212 x146) (= x212 x134)) (= x225 x212))) (= x212 x39)))))))) (and (and (and (and (and (= x212 (x59 (x59 x212 x134) x134)) (= x57 (x59 (x59 x57 x146) x146))) (= x140 (x59 (x59 x140 x225) x225))) (= (x59 (x59 x47 x218) x218) x47)) (= (x59 (x59 x128 x39) x39) x128)) (= x105 (x59 (x59 x105 x186) x186))))))
(assert (let ((x128 (x59 x146 x146))) (let ((x57 (x59 x128 x146))) (let ((x212 (x59 x57 x146))) (let ((x140 (x59 x212 x57))) (let ((x47 (x59 x146 x140))) (not (and (and (and (and (= x47 x47) (and (and (and (and (= x57 x57) (and (and (and (= x140 (x59 x128 x47)) (and (and (= (x59 x128 x212) x128) (and (= x140 (x59 x140 x146)) (and (and (= (x59 x140 x140) x57) (and (= (x59 x140 x47) x47) (and (and (= x146 (x59 x140 x212)) (and (= x47 (x59 x47 x146)) (and (= x146 (x59 x47 x128)) (and (= x140 (x59 x47 x140)) (and (= x212 (x59 x47 x47)) (and (and (and (= x212 x212) (and (= (x59 x57 x128) x57) (and (and (= (x59 x57 x47) x128) (and (= (x59 x57 x57) x47) (and (and (and (= x212 (x59 x212 x128)) (and (and (= x57 (x59 x212 x47)) (and (= (x59 x212 x212) x47) (= x140 x140))) (= x128 (x59 x212 x140)))) (= (x59 x212 x146) x146)) (= x140 (x59 x57 x212))))) (= (x59 x57 x140) x146)))) (= x57 (x59 x47 x212))) (= x128 (x59 x47 x57)))))))) (= (x59 x140 x57) x212)))) (= (x59 x140 x128) x128)))) (= (x59 x128 x57) x146))) (= x212 (x59 x128 x140))) (= (x59 x128 x128) x47))) (= x212 (x59 x146 x212))) (= x57 (x59 x146 x57))) (= (x59 x146 x47) x146))) (= (x59 x146 x128) x140)) (= x128 x128)) (and (not (= x146 x128)) (and (not (= x146 x140)) (and (not (= x47 x146)) (and (and (and (not (= x128 x146)) (and (and (and (not (= x128 x57)) (and (not (= x212 x128)) (and (not (= x140 x146)) (and (and (not (= x140 x47)) (and (not (= x140 x57)) (and (not (= x212 x140)) (and (not (= x47 x146)) (and (and (and (and (and (and (and (not (= x57 x140)) (and (and (and (and (not (= x128 x212)) (and (not (= x212 x140)) (and (not (= x212 x47)) (not (= x57 x212))))) (not (= x212 x146))) (not (= x212 x57))) (not (= x57 x47)))) (not (= x57 x128))) (not (= x146 x57))) (not (= x212 x47))) (not (= x57 x47))) (not (= x140 x47))) (not (= x128 x47))))))) (not (= x140 x128)))))) (not (= x128 x47))) (not (= x128 x140)))) (not (= x146 x212))) (not (= x146 x57))))))))))))))
(assert (and (not (= x39 x186)) (and (and (not (= x218 x39)) (and (and (not (= x39 x225)) (and (and (not (= x186 x134)) (and (not (= x39 x134)) (and (not (= x218 x134)) (and (not (= x225 x134)) (and (not (= x186 x146)) (and (and (and (not (= x146 x225)) (not (= x134 x146))) (not (= x218 x146))) (not (= x39 x146)))))))) (not (= x225 x218)))) (not (= x225 x186)))) (not (= x218 x186)))))
(assert (let ((x239 (x59 x134 x134)) (x105 (x59 x186 x146)) (x174 (x59 x225 x186)) (x129 (x59 x146 x186)) (x100 (x59 x225 x225)) (x188 (x59 x186 x225)) (x77 (x59 x134 x39)) (x128 (x59 x39 x146)) (x47 (x59 x218 x146)) (x70 (x59 x134 x225)) (x29 (x59 x186 x218)) (x98 (x59 x146 x134)) (x169 (x59 x39 x218)) (x194 (x59 x39 x186)) (x85 (x59 x39 x39)) (x72 (x59 x218 x39)) (x207 (x59 x218 x186)) (x224 (x59 x225 x39)) (x67 (x59 x186 x186)) (x55 (x59 x146 x218)) (x140 (x59 x225 x146)) (x145 (x59 x39 x134)) (x171 (x59 x186 x39)) (x16 (x59 x225 x218)) (x159 (x59 x146 x225)) (x233 (x59 x218 x218)) (x106 (x59 x218 x134)) (x76 (x59 x218 x225)) (x261 (x59 x39 x225)) (x60 (x59 x134 x218)) (x212 (x59 x134 x146)) (x265 (x59 x134 x186)) (x57 (x59 x146 x146)) (x112 (x59 x186 x134)) (x62 (x59 x146 x39)) (x23 (x59 x225 x134))) (and (and (and (not (= x67 x194)) (and (and (and (not (= x174 x67)) (and (and (and (not (= x265 x67)) (and (and (and (and (not (= x67 x129)) (and (not (= x129 x194)) (and (not (= x129 x207)) (and (not (= x265 x129)) (not (= x129 x174)))))) (not (= x265 x174))) (not (= x207 x265))) (not (= x265 x194)))) (not (= x174 x207))) (not (= x174 x194)))) (not (= x194 x207))) (not (= x67 x207)))) (and (and (and (and (and (and (not (= x105 x47)) (and (not (= x47 x128)) (and (and (not (= x140 x128)) (and (and (not (= x105 x212)) (and (and (not (= x212 x47)) (and (and (and (not (= x128 x57)) (and (not (= x57 x47)) (and (not (= x212 x57)) (not (= x140 x57))))) (not (= x105 x57))) (not (= x212 x140)))) (not (= x212 x128)))) (not (= x140 x47)))) (not (= x140 x105))))) (not (= x128 x105))) (and (not (= x145 x112)) (and (and (not (= x106 x145)) (and (not (= x23 x112)) (and (and (and (and (not (= x145 x239)) (and (not (= x106 x239)) (and (not (= x23 x239)) (and (not (= x98 x112)) (and (not (= x98 x145)) (and (not (= x106 x98)) (and (not (= x98 x23)) (not (= x98 x239))))))))) (not (= x239 x112))) (not (= x106 x23))) (not (= x23 x145))))) (not (= x112 x106))))) (and (not (= x188 x261)) (and (and (not (= x76 x261)) (and (not (= x100 x188)) (and (not (= x261 x100)) (and (not (= x76 x100)) (and (and (not (= x261 x70)) (and (not (= x70 x76)) (and (not (= x70 x100)) (and (not (= x159 x188)) (and (and (and (not (= x70 x159)) (not (= x100 x159))) (not (= x159 x76))) (not (= x159 x261))))))) (not (= x188 x70))))))) (not (= x188 x76))))) (and (and (not (= x233 x29)) (and (not (= x169 x233)) (and (and (and (and (and (and (and (and (not (= x29 x55)) (and (and (not (= x233 x55)) (and (not (= x55 x16)) (not (= x60 x55)))) (not (= x55 x169)))) (not (= x16 x60))) (not (= x60 x233))) (not (= x169 x60))) (not (= x60 x29))) (not (= x16 x233))) (not (= x16 x169))) (not (= x16 x29))))) (not (= x29 x169)))) (and (not (= x85 x171)) (and (and (not (= x72 x85)) (and (and (not (= x85 x224)) (and (not (= x72 x224)) (and (and (and (not (= x77 x72)) (and (not (= x224 x77)) (and (not (= x171 x62)) (and (and (not (= x62 x72)) (and (not (= x62 x224)) (not (= x62 x77)))) (not (= x85 x62)))))) (not (= x77 x85))) (not (= x77 x171))))) (not (= x224 x171)))) (not (= x171 x72)))))) (and (and (and (and (and (and (not (= x77 x265)) (and (and (not (= x77 x60)) (and (not (= x70 x265)) (and (and (and (and (and (not (= x239 x60)) (and (not (= x239 x70)) (and (not (= x212 x265)) (and (not (= x212 x77)) (and (not (= x60 x212)) (and (not (= x239 x212)) (not (= x212 x70)))))))) (not (= x239 x77))) (not (= x239 x265))) (not (= x60 x70))) (not (= x77 x70))))) (not (= x265 x60)))) (and (not (= x62 x129)) (and (not (= x55 x129)) (and (not (= x62 x55)) (and (not (= x159 x129)) (and (and (not (= x55 x159)) (and (and (not (= x62 x98)) (and (not (= x98 x55)) (and (not (= x98 x159)) (and (not (= x129 x57)) (and (not (= x62 x57)) (and (and (not (= x57 x98)) (not (= x57 x159))) (not (= x57 x55)))))))) (not (= x129 x98)))) (not (= x62 x159)))))))) (and (not (= x224 x174)) (and (and (and (not (= x100 x174)) (and (and (not (= x100 x16)) (and (not (= x23 x174)) (and (not (= x224 x23)) (and (and (not (= x100 x23)) (and (and (and (and (not (= x140 x23)) (not (= x140 x100))) (not (= x16 x140))) (not (= x224 x140))) (not (= x174 x140)))) (not (= x23 x16)))))) (not (= x224 x100)))) (not (= x224 x16))) (not (= x16 x174))))) (and (not (= x72 x207)) (and (not (= x207 x233)) (and (and (not (= x76 x207)) (and (not (= x72 x76)) (and (and (and (and (not (= x233 x106)) (and (not (= x106 x76)) (and (not (= x47 x207)) (and (not (= x72 x47)) (and (and (not (= x106 x47)) (not (= x76 x47))) (not (= x47 x233))))))) (not (= x72 x106))) (not (= x106 x207))) (not (= x76 x233))))) (not (= x72 x233)))))) (and (and (and (and (and (and (and (and (and (not (= x145 x169)) (and (not (= x145 x261)) (and (not (= x194 x128)) (and (and (and (not (= x145 x128)) (not (= x261 x128))) (not (= x169 x128))) (not (= x128 x85)))))) (not (= x145 x85))) (not (= x145 x194))) (not (= x169 x261))) (not (= x261 x85))) (not (= x194 x261))) (not (= x85 x169))) (not (= x194 x169))) (not (= x85 x194)))) (and (not (= x171 x67)) (and (not (= x67 x29)) (and (not (= x29 x171)) (and (not (= x188 x67)) (and (and (and (and (not (= x171 x112)) (and (not (= x112 x29)) (and (and (not (= x67 x105)) (and (not (= x105 x171)) (and (not (= x105 x29)) (and (not (= x112 x105)) (not (= x105 x188)))))) (not (= x188 x112))))) (not (= x112 x67))) (not (= x188 x29))) (not (= x171 x188)))))))))))
(assert (and (not (= (x59 x186 x186) x186)) (and (not (= x39 (x59 x39 x39))) (and (and (not (= (x59 x225 x225) x225)) (and (not (= x134 (x59 x134 x134))) (not (= (x59 x146 x146) x146)))) (not (= x218 (x59 x218 x218)))))))
(assert (and (and (and (and (and (= x225 (x59 (x59 x225 x8) (x59 x8 x225))) (and (= x146 (x59 (x59 x146 x8) (x59 x8 x146))) (= x134 (x59 (x59 x134 x8) (x59 x8 x134))))) (= (x59 (x59 x218 x8) (x59 x8 x218)) x218)) (= (x59 (x59 x39 x8) (x59 x8 x39)) x39)) (= (x59 (x59 x186 x8) (x59 x8 x186)) x186)) (or (= x186 x8) (or (= x8 x39) (or (or (= x225 x8) (or (= x8 x134) (= x8 x146))) (= x8 x218))))))
(assert (let ((x265 (x59 x186 x218)) (x129 (x59 x225 x186)) (x62 (not (= (x59 x39 x39) x39))) (x145 (x59 x146 x218)) (x207 (x59 x186 x39)) (x171 (x59 x186 x225)) (x70 (x59 x218 x225)) (x57 (not (= (x59 x146 x146) x146))) (x159 (x59 x134 x218)) (x224 (x59 x146 x186)) (x55 (x59 x39 x134)) (x98 (x59 x225 x134)) (x169 (x59 x39 x218)) (x16 (x59 x39 x225)) (x72 (x59 x186 x134)) (x29 (x59 x218 x39)) (x140 (x59 x146 x134)) (x23 (not (= (x59 x225 x225) x225))) (x106 (x59 x218 x146)) (x174 (x59 x218 x186)) (x67 (not (= (x59 x186 x186) x186))) (x85 (x59 x134 x186)) (x76 (not (= (x59 x218 x218) x218))) (x212 (x59 x134 x146)) (x100 (x59 x225 x218)) (x105 (x59 x146 x225)) (x261 (x59 x39 x146)) (x77 (x59 x186 x146)) (x128 (x59 x225 x146)) (x188 (x59 x146 x39)) (x112 (x59 x218 x134)) (x239 (x59 x134 x225)) (x194 (x59 x39 x186)) (x233 (x59 x225 x39)) (x60 (x59 x134 x39)) (x47 (not (= (x59 x134 x134) x134)))) (and (and (and (and (and (or (not (= x39 x169)) (not (= x39 x29))) (and (or (not (= x39 x233)) (not (= x39 x16))) (and (or (not (= x39 x60)) (not (= x39 x55))) (or (not (= x188 x39)) (not (= x39 x261)))))) (or x62 x62)) (or (not (= x39 x194)) (not (= x207 x39)))) (and (and (and (or (not (= x171 x225)) (not (= x225 x129))) (and (and (or (not (= x100 x225)) (not (= x70 x225))) (and (and (or (not (= x128 x225)) (not (= x225 x105))) (or (not (= x225 x239)) (not (= x98 x225)))) (or x23 x23))) (or (not (= x225 x233)) (not (= x16 x225))))) (and (and (or (not (= x72 x134)) (not (= x85 x134))) (and (or (not (= x134 x55)) (not (= x60 x134))) (and (or (not (= x159 x134)) (not (= x134 x112))) (and (or (not (= x134 x98)) (not (= x239 x134))) (and (or (not (= x134 x140)) (not (= x134 x212))) (or x47 x47)))))) (and (and (or (not (= x146 x261)) (not (= x188 x146))) (and (and (and (or x57 x57) (or (not (= x146 x212)) (not (= x146 x140)))) (or (not (= x146 x128)) (not (= x146 x105)))) (or (not (= x145 x146)) (not (= x146 x106))))) (or (not (= x146 x77)) (not (= x146 x224)))))) (and (or (not (= x174 x218)) (not (= x265 x218))) (and (and (or x76 x76) (and (and (or (not (= x159 x218)) (not (= x112 x218))) (or (not (= x145 x218)) (not (= x106 x218)))) (or (not (= x100 x218)) (not (= x70 x218))))) (or (not (= x169 x218)) (not (= x218 x29))))))) (and (or x67 x67) (and (and (or (not (= x186 x265)) (not (= x174 x186))) (and (and (or (not (= x186 x85)) (not (= x72 x186))) (or (not (= x224 x186)) (not (= x186 x77)))) (or (not (= x129 x186)) (not (= x171 x186))))) (or (not (= x186 x207)) (not (= x186 x194))))))))
(assert (let ((x128 (x59 x225 x225))) (let ((x57 (x59 x128 x225))) (let ((x212 (x59 x57 x225))) (let ((x140 (x59 x212 x57))) (let ((x47 (x59 x225 x140))) (not (and (and (not (= x225 x128)) (and (and (and (and (not (= x212 x225)) (and (and (not (= x128 x140)) (and (and (not (= x57 x128)) (and (and (not (= x225 x140)) (and (and (and (and (and (not (= x47 x225)) (and (not (= x128 x47)) (and (and (not (= x57 x47)) (and (not (= x47 x212)) (and (not (= x225 x57)) (and (and (and (and (and (not (= x212 x225)) (and (not (= x212 x128)) (and (not (= x212 x140)) (and (not (= x57 x212)) (not (= x47 x212)))))) (not (= x57 x212))) (not (= x47 x57))) (not (= x57 x140))) (not (= x57 x128)))))) (not (= x47 x140))))) (not (= x140 x212))) (not (= x140 x57))) (not (= x140 x47))) (not (= x128 x140)))) (not (= x128 x212)))) (not (= x128 x47)))) (not (= x225 x128)))) (not (= x57 x225))) (not (= x47 x225))) (not (= x225 x140)))) (and (and (and (and (and (= x57 (x59 x225 x57)) (and (= x212 (x59 x225 x212)) (and (and (and (and (and (= x225 (x59 x128 x57)) (and (= x128 (x59 x128 x212)) (and (= x140 (x59 x140 x225)) (and (and (and (= x47 (x59 x140 x47)) (and (and (and (and (and (and (= x212 (x59 x47 x47)) (and (= (x59 x47 x57) x128) (and (= x57 (x59 x47 x212)) (and (and (and (and (and (and (= x140 (x59 x57 x212)) (and (= x225 (x59 x212 x225)) (and (= (x59 x212 x128) x212) (and (and (and (= x140 x140) (= x47 (x59 x212 x212))) (= x57 (x59 x212 x47))) (= x128 (x59 x212 x140)))))) (= (x59 x57 x57) x47)) (= x128 (x59 x57 x47))) (= x225 (x59 x57 x140))) (= x57 (x59 x57 x128))) (= x212 x212))))) (= (x59 x47 x140) x140)) (= x225 (x59 x47 x128))) (= (x59 x47 x225) x47)) (= (x59 x140 x212) x225)) (= (x59 x140 x57) x212))) (= x57 (x59 x140 x140))) (= x128 (x59 x140 x128)))))) (= (x59 x128 x47) x140)) (= (x59 x128 x140) x212)) (= (x59 x128 x128) x47)) (= x57 x57)))) (= (x59 x225 x47) x225)) (= x47 x47)) (= (x59 x225 x128) x140)) (= x128 x128))))))))))
(assert (let ((x85 (x59 x225 x134)) (x119 (x59 x225 x218)) (x62 (x59 x134 x39)) (x159 (x59 x186 x146)) (x140 (x59 x146 x134)) (x183 (x59 x186 x39)) (x129 (x59 x39 x134)) (x212 (x59 x146 x146)) (x106 (x59 x225 x146)) (x7 (x59 x186 x225)) (x112 (x59 x39 x146)) (x82 (x59 x39 x186)) (x128 (x59 x146 x218)) (x264 (x59 x218 x218)) (x95 (x59 x39 x39)) (x145 (x59 x218 x146)) (x105 (x59 x146 x39)) (x83 (x59 x39 x225)) (x199 (x59 x218 x225)) (x265 (x59 x186 x134)) (x19 (x59 x186 x186)) (x233 (x59 x134 x134)) (x63 (x59 x225 x39)) (x171 (x59 x218 x134)) (x169 (x59 x134 x225)) (x23 (x59 x134 x146)) (x64 (x59 x39 x218)) (x29 (x59 x134 x218)) (x234 (x59 x218 x39)) (x77 (x59 x134 x186)) (x47 (x59 x146 x225)) (x98 (x59 x146 x186)) (x94 (x59 x225 x186)) (x110 (x59 x218 x186)) (x103 (x59 x225 x225)) (x14 (x59 x186 x218))) (let ((x120 (= x134 x98)) (x121 (= x146 x85)) (x92 (= x29 x146)) (x244 (= x186 x19)) (x196 (= x29 x39)) (x177 (= x134 x129)) (x209 (= x105 x134)) (x266 (= x29 x186)) (x3 (= x225 x129)) (x25 (= x225 x63)) (x116 (= x265 x134)) (x236 (= x186 x234)) (x93 (= x225 x171)) (x147 (= x225 x106)) (x27 (= x14 x146)) (x124 (= x146 x264)) (x11 (= x218 x103)) (x252 (= x145 x146)) (x241 (= x23 x186)) (x232 (= x39 x47)) (x67 (= x218 x23)) (x76 (= x212 x39)) (x239 (= x212 x134)) (x213 (= x186 x119)) (x52 (= x265 x146)) (x200 (= x225 x95)) (x230 (= x94 x134)) (x211 (= x39 x119)) (x205 (= x265 x218)) (x202 (= x98 x146)) (x56 (= x110 x134)) (x130 (= x63 x186)) (x175 (= x218 x29)) (x136 (= x186 x106)) (x68 (= x83 x218)) (x179 (= x218 x140)) (x141 (= x225 x169)) (x41 (= x110 x225)) (x158 (= x14 x225)) (x245 (= x225 x64)) (x96 (= x218 x19)) (x257 (= x103 x146)) (x256 (= x77 x225)) (x2 (= x39 x62)) (x176 (= x199 x186)) (x79 (= x186 x95)) (x174 (= x23 x225)) (x260 (= x134 x112)) (x101 (= x134 x64)) (x187 (= x186 x103)) (x115 (= x39 x98)) (x203 (= x39 x265)) (x61 (= x146 x159)) (x65 (= x134 x62)) (x57 (= x146 x212)) (x143 (= x39 x105)) (x246 (= x159 x225)) (x152 (= x234 x225)) (x206 (= x218 x85)) (x182 (= x159 x218)) (x138 (= x47 x134)) (x53 (= x106 x39)) (x224 (= x134 x140)) (x84 (= x19 x134)) (x111 (= x146 x83)) (x44 (= x146 x183)) (x185 (= x225 x62)) (x9 (= x103 x225)) (x90 (= x225 x199)) (x184 (= x146 x7)) (x251 (= x83 x39)) (x35 (= x199 x134)) (x125 (= x94 x146)) (x222 (= x62 x218)) (x165 (= x128 x225)) (x50 (= x145 x186)) (x40 (= x63 x146)) (x31 (= x186 x183)) (x216 (= x39 x233)) (x32 (= x119 x146)) (x167 (= x225 x29)) (x151 (= x63 x134)) (x237 (= x39 x82)) (x198 (= x83 x225)) (x250 (= x64 x146)) (x58 (= x63 x39)) (x132 (= x95 x39)) (x123 (= x119 x134)) (x149 (= x39 x103)) (x73 (= x146 x234)) (x258 (= x218 x105)) (x66 (= x140 x39)) (x248 (= x134 x83)) (x242 (= x183 x218)) (x208 (= x98 x186)) (x21 (= x199 x218)) (x197 (= x47 x225)) (x204 (= x183 x225)) (x229 (= x233 x186)) (x192 (= x134 x106)) (x144 (= x171 x39)) (x34 (= x146 x129)) (x168 (= x23 x39)) (x150 (= x134 x7)) (x181 (= x169 x218)) (x148 (= x19 x225)) (x231 (= x159 x39)) (x118 (= x186 x14)) (x219 (= x146 x199)) (x131 (= x29 x134)) (x20 (= x146 x95)) (x88 (= x264 x39)) (x255 (= x140 x186)) (x107 (= x265 x186)) (x157 (= x19 x39)) (x210 (= x146 x62)) (x33 (= x225 x85)) (x178 (= x128 x39)) (x228 (= x77 x218)) (x13 (= x14 x134)) (x114 (= x105 x186)) (x221 (= x225 x145)) (x163 (= x169 x134)) (x214 (= x82 x134)) (x43 (= x146 x169)) (x207 (= x140 x225)) (x6 (= x186 x169)) (x16 (= x23 x134)) (x55 (= x140 x146)) (x51 (= x7 x225)) (x117 (= x146 x77)) (x113 (= x134 x145)) (x30 (= x218 x95)) (x5 (= x134 x183)) (x154 (= x77 x134)) (x133 (= x95 x134)) (x259 (= x129 x39)) (x127 (= x94 x39)) (x164 (= x264 x134)) (x28 (= x64 x39)) (x262 (= x128 x218)) (x100 (= x212 x218)) (x10 (= x218 x234)) (x45 (= x128 x146)) (x71 (= x225 x265)) (x155 (= x39 x183)) (x161 (= x146 x82)) (x80 (= x112 x39)) (x24 (= x110 x146)) (x15 (= x186 x85)) (x188 (= x23 x146)) (x137 (= x39 x145)) (x108 (= x218 x82)) (x74 (= x225 x94)) (x22 (= x264 x186)) (x81 (= x39 x169)) (x38 (= x234 x134)) (x54 (= x186 x171)) (x194 (= x233 x225)) (x78 (= x199 x39)) (x69 (= x146 x106)) (x135 (= x233 x218)) (x70 (= x212 x225)) (x191 (= x39 x77)) (x1 (= x106 x218)) (x139 (= x98 x218)) (x126 (= x225 x105)) (x227 (= x186 x64)) (x180 (= x171 x134)) (x238 (= x145 x218)) (x99 (= x112 x186)) (x201 (= x218 x112)) (x156 (= x129 x218)) (x42 (= x112 x225)) (x254 (= x146 x105)) (x17 (= x14 x218)) (x162 (= x39 x234)) (x109 (= x47 x218)) (x37 (= x98 x225)) (x247 (= x62 x186)) (x12 (= x146 x112)) (x36 (= x119 x225)) (x72 (= x233 x134)) (x249 (= x110 x186)) (x189 (= x186 x77)) (x223 (= x225 x264)) (x253 (= x186 x129)) (x60 (= x233 x146)) (x261 (= x212 x186)) (x160 (= x171 x146)) (x195 (= x134 x159)) (x170 (= x186 x47)) (x193 (= x159 x186)) (x235 (= x218 x63)) (x49 (= x218 x171)) (x89 (= x186 x83)) (x215 (= x85 x39)) (x172 (= x110 x218)) (x18 (= x225 x82)) (x217 (= x82 x186)) (x4 (= x7 x186)) (x75 (= x14 x39)) (x263 (= x103 x134)) (x48 (= x47 x146)) (x102 (= x64 x218)) (x220 (= x19 x146)) (x86 (= x218 x94)) (x173 (= x134 x128)) (x87 (= x128 x186)) (x142 (= x186 x94)) (x153 (= x264 x218)) (x243 (= x218 x119)) (x166 (= x39 x7)) (x97 (= x110 x39)) (x46 (= x7 x218)) (x240 (= x134 x85))) (and (and (and (and (and (and (or x148 (or (or x158 (or (or x71 x246) x51)) x204)) (or x148 (or (or (or (or x256 x37) x74) x41) x18))) (and (and (or (or (or x24 (or (or x117 x202) x125)) x161) x220) (or x220 (or x44 (or x27 (or x184 (or x52 x61)))))) (and (or (or (or (or x230 (or x154 x120)) x56) x214) x84) (or x84 (or (or x13 (or x150 (or x116 x195))) x5))))) (and (or x96 (or x242 (or (or x46 (or x182 x205)) x17))) (or (or (or (or (or x139 x228) x86) x172) x108) x96))) (and (or (or x155 (or (or x166 (or x231 x203)) x75)) x157) (or x157 (or x237 (or (or (or x191 x115) x127) x97))))) (and (or x244 (or (or x118 (or (or x107 x193) x4)) x31)) (or (or (or x249 (or (or x208 x189) x142)) x217) x244))) (and (and (and (or (or (or (or x89 (or x253 x99)) x227) x79) x217) (or x31 (or (or x236 (or (or x114 x247) x130)) x79))) (and (and (and (and (or x204 (or (or (or x25 (or x126 x185)) x152) x200)) (or (or x200 (or x245 (or (or x42 x3) x198))) x18)) (and (and (or x214 (or x133 (or x101 (or x248 (or x260 x177))))) (or (or (or x38 (or (or x65 x209) x151)) x133) x5)) (and (or (or (or x250 (or (or x34 x12) x111)) x20) x161) (or x44 (or (or x73 (or (or x210 x254) x40)) x20))))) (and (or (or (or x10 (or x235 (or x258 x222))) x30) x242) (or x108 (or x30 (or x102 (or x68 (or x156 x201))))))) (and (or (or (or x28 (or (or x259 x80) x251)) x132) x237) (or x155 (or (or x162 (or (or x2 x143) x58)) x132))))) (and (and (and (or (or (or (or x176 (or x50 x54)) x22) x236) x249) (or (or (or (or x213 (or x87 x266)) x22) x227) x118)) (and (and (or (or x28 (or x88 (or x211 (or x196 x178)))) x75) (or (or (or x88 (or x78 (or x144 x137))) x162) x97)) (and (and (or (or (or (or (or x49 x238) x21) x153) x10) x172) (or x17 (or (or x153 (or x243 (or x175 x262))) x102))) (and (and (or (or (or (or (or x221 x93) x90) x223) x152) x41) (or x158 (or x245 (or x223 (or (or x167 x165) x36))))) (and (and (or (or (or x164 (or x35 (or x113 x180))) x38) x56) (or (or x101 (or x164 (or (or x173 x131) x123))) x13)) (and (or (or (or x124 (or x32 (or x92 x45))) x250) x27) (or (or (or (or x219 (or x160 x252)) x124) x73) x24))))))) (and (and (and (and (or x189 (or x247 (or (or (or x229 x241) x6) x266))) (or x107 (or x253 (or x54 (or x15 (or x255 x229)))))) (and (and (and (or x228 (or (or (or x181 (or x67 x135)) x175) x222)) (or (or x156 (or x49 (or (or x135 x179) x206))) x205)) (and (and (or (or (or x167 (or (or x174 x194) x141)) x185) x256) (or x71 (or (or x93 (or (or x194 x207) x33)) x3))) (and (and (or x117 (or x210 (or x92 (or (or x60 x188) x43)))) (or x52 (or (or (or x121 (or x55 x60)) x160) x34))) (and (or x154 (or x65 (or x131 (or x163 (or x16 x72))))) (or (or (or x180 (or (or x224 x72) x240)) x177) x116))))) (and (or x191 (or (or (or x81 (or x168 x216)) x196) x2)) (or (or x259 (or x144 (or x215 (or x216 x66)))) x203)))) (and (and (or (or x99 (or (or (or x241 x261) x136) x50)) x193) (or (or x114 (or (or x170 (or x255 x261)) x87)) x208)) (and (and (and (or x139 (or x258 (or x262 (or x109 (or x179 x100))))) (or (or (or (or x1 (or x67 x100)) x238) x201) x182)) (and (and (or (or (or (or (or x70 x174) x147) x221) x42) x246) (or x37 (or x126 (or (or x197 (or x70 x207)) x165)))) (and (and (or (or (or (or x48 (or x57 x55)) x45) x254) x202) (or (or (or (or x69 (or x57 x188)) x252) x12) x61)) (and (or x120 (or x209 (or x173 (or x138 (or x224 x239))))) (or (or (or x113 (or (or x239 x16) x192)) x260) x195))))) (and (or x115 (or x143 (or (or (or x66 x76) x232) x178))) (or x231 (or x80 (or (or (or x168 x76) x53) x137))))))) (and (and (or (or (or x176 (or (or x6 x170) x187)) x89) x4) (or (or x130 (or (or (or x136 x15) x187) x213)) x142)) (and (and (or x127 (or (or (or x149 (or x53 x215)) x211) x58)) (or (or x251 (or (or (or x232 x81) x149) x78)) x166)) (and (and (and (and (or x230 (or x151 (or x123 (or (or x192 x240) x263)))) (or (or (or (or x263 (or x138 x163)) x35) x248) x150)) (and (or (or x111 (or x219 (or (or x48 x43) x257))) x184) (or x125 (or x40 (or x32 (or (or x69 x121) x257)))))) (and (or (or x198 (or x90 (or (or x197 x141) x9))) x51) (or (or x25 (or x36 (or (or x33 x147) x9))) x74))) (and (or x86 (or (or x243 (or x11 (or x206 x1))) x235)) (or x46 (or (or (or x11 (or x181 x109)) x21) x68)))))))))))))
(assert (let ((x128 (x59 x218 x218))) (let ((x57 (x59 x128 x218))) (let ((x212 (x59 x57 x218))) (let ((x140 (x59 x212 x57))) (let ((x47 (x59 x218 x140))) (not (and (and (= x128 x128) (and (= (x59 x218 x128) x140) (and (and (and (and (= x212 (x59 x218 x212)) (and (and (= (x59 x128 x128) x47) (and (and (and (= (x59 x128 x57) x218) (and (= (x59 x128 x212) x128) (and (= (x59 x140 x218) x140) (and (= (x59 x140 x128) x128) (and (= (x59 x140 x140) x57) (and (= x47 (x59 x140 x47)) (and (= (x59 x140 x57) x212) (and (= x218 (x59 x140 x212)) (and (= x47 (x59 x47 x218)) (and (and (and (= (x59 x47 x47) x212) (and (= (x59 x47 x57) x128) (and (= x57 (x59 x47 x212)) (and (and (and (= (x59 x57 x140) x218) (and (= (x59 x57 x47) x128) (and (and (= (x59 x57 x212) x140) (and (= x218 (x59 x212 x218)) (and (= x212 (x59 x212 x128)) (and (= (x59 x212 x140) x128) (and (= x57 (x59 x212 x47)) (and (= x47 (x59 x212 x212)) (= x140 x140))))))) (= x47 (x59 x57 x57))))) (= (x59 x57 x128) x57)) (= x212 x212))))) (= x140 (x59 x47 x140))) (= x218 (x59 x47 x128)))))))))))) (= (x59 x128 x47) x140)) (= x212 (x59 x128 x140)))) (= x57 x57))) (= (x59 x218 x57) x57)) (= x218 (x59 x218 x47))) (= x47 x47)))) (and (and (and (and (not (= x218 x57)) (and (not (= x218 x212)) (and (and (and (and (and (not (= x128 x212)) (and (not (= x218 x140)) (and (and (not (= x47 x140)) (and (and (and (not (= x218 x47)) (and (and (and (and (and (and (not (= x128 x57)) (and (and (and (and (and (and (and (not (= x212 x47)) (not (= x57 x212))) (not (= x140 x212))) (not (= x212 x128))) (not (= x218 x212))) (not (= x57 x212))) (not (= x47 x57))) (not (= x57 x140)))) (not (= x57 x218))) (not (= x47 x212))) (not (= x57 x47))) (not (= x47 x140))) (not (= x47 x128)))) (not (= x212 x140))) (not (= x140 x57)))) (not (= x128 x140))))) (not (= x128 x57))) (not (= x128 x47))) (not (= x128 x140))) (not (= x218 x128))))) (not (= x218 x47))) (not (= x218 x140))) (not (= x218 x128)))))))))))
(check-sat)
(exit)
